p cnf 523 1229
a 324 327 437 333 338 446 343 346 352 459 463 466 363 366 371 374 484 296 382 385 390 393 496 315 400 403 407 410 510 417 421 424 7 13 24 30 2 1 40 18 6 12 35 23 29 50 45 60 55 70 65 80 75 85 90 95 105 100 110 115 120 130 125 135 140 145 150 180 162 154 158 175 167 171 190 185 200 195 209 205 219 214 224 228 232 237 247 242 252 257 262 271 267 276 281 286 291 295 301 305 310 314 320 0
d 415 2 510 0
d 397 310 314 320 2 496 0
d 331 437 2 0
d 355 459 2 0
d 341 446 224 228 2 0
d 360 262 466 2 0
d 358 463 2 0
d 381 291 295 301 2 484 0
d 263 7 13 30 24 0
d 3 2 0
d 4 1 2 0
d 5 1 2 0
d 8 7 0
d 9 6 7 0
d 10 6 7 0
d 11 1 2 6 7 0
d 14 13 0
d 15 12 13 0
d 16 12 13 0
d 17 1 2 6 7 12 13 0
d 19 6 12 0
d 20 18 6 12 0
d 21 18 6 12 0
d 22 1 2 6 7 12 13 18 0
d 25 24 0
d 26 23 24 0
d 27 23 24 0
d 28 1 2 6 7 12 13 18 23 24 0
d 31 30 0
d 32 29 30 0
d 33 29 30 0
d 34 1 2 6 7 12 13 18 23 24 29 30 0
d 36 23 29 0
d 37 35 23 29 0
d 38 35 23 29 0
d 39 1 2 6 7 12 13 18 23 24 29 30 35 0
d 41 18 35 0
d 42 40 18 35 0
d 43 40 18 35 0
d 44 1 2 6 7 12 13 18 23 24 29 30 35 40 0
d 46 7 12 0
d 47 45 7 12 0
d 48 45 7 12 0
d 49 1 2 6 7 12 13 18 23 24 29 30 35 40 45 0
d 51 45 35 0
d 52 50 45 35 0
d 53 50 45 35 0
d 54 1 2 6 7 12 13 18 23 24 29 30 35 40 45 50 0
d 56 6 13 0
d 57 55 6 13 0
d 58 55 6 13 0
d 59 1 2 6 7 12 13 18 23 24 29 30 35 40 45 50 55 0
d 61 55 35 0
d 62 60 55 35 0
d 63 60 55 35 0
d 64 1 2 6 7 12 13 18 23 24 29 30 35 40 45 50 55 60 0
d 66 7 13 0
d 67 65 7 13 0
d 68 65 7 13 0
d 69 1 2 6 7 12 13 18 23 24 29 30 35 40 45 50 55 60 65 0
d 71 65 35 0
d 72 70 65 35 0
d 73 70 65 35 0
d 74 1 2 6 7 12 13 18 23 24 29 30 35 40 45 50 55 60 65 70 0
d 76 24 29 0
d 77 75 24 29 0
d 78 75 24 29 0
d 79 1 2 6 7 12 13 18 23 24 29 30 35 40 45 50 55 60 65 70 75 0
d 81 18 75 0
d 82 80 18 75 0
d 83 80 18 75 0
d 84 1 2 6 7 12 13 18 23 24 29 30 35 40 45 50 55 60 65 70 75 80 0
d 86 45 75 0
d 87 85 45 75 0
d 88 85 45 75 0
d 89 1 2 6 7 12 13 18 23 24 29 30 35 40 45 50 55 60 65 70 75 80 85 0
d 91 55 75 0
d 92 90 55 75 0
d 93 90 55 75 0
d 94 1 2 6 7 12 13 18 23 24 29 30 35 40 45 50 55 60 65 70 75 80 85 90 0
d 96 65 75 0
d 97 95 65 75 0
d 98 95 65 75 0
d 99 1 2 6 7 12 13 18 23 24 29 30 35 40 45 50 55 60 65 70 75 80 85 90 95 0
d 101 23 30 0
d 102 100 23 30 0
d 103 100 23 30 0
d 104 1 2 6 7 12 13 18 23 24 29 30 35 40 45 50 55 60 65 70 75 80 85 90 95 100 0
d 106 18 100 0
d 107 105 18 100 0
d 108 105 18 100 0
d 109 1 2 6 7 12 13 18 23 24 29 30 35 40 45 50 55 60 65 70 75 80 85 90 95 100 105 0
d 111 45 100 0
d 112 110 45 100 0
d 113 110 45 100 0
d 114 1 2 6 7 12 13 18 23 24 29 30 35 40 45 50 55 60 65 70 75 80 85 90 95 100 105 110 0
d 116 55 100 0
d 117 115 55 100 0
d 118 115 55 100 0
d 119 1 2 6 7 12 13 18 23 24 29 30 35 40 45 50 55 60 65 70 75 80 85 90 95 100 105 110 115 0
d 121 65 100 0
d 122 120 65 100 0
d 123 120 65 100 0
d 124 1 2 6 7 12 13 18 23 24 29 30 35 40 45 50 55 60 65 70 75 80 85 90 95 100 105 110 115 120 0
d 126 24 30 0
d 127 125 24 30 0
d 128 125 24 30 0
d 129 1 2 6 7 12 13 18 23 24 29 30 35 40 45 50 55 60 65 70 75 80 85 90 95 100 105 110 115 120 125 0
d 131 18 125 0
d 132 130 18 125 0
d 133 130 18 125 0
d 134 1 2 6 7 12 13 18 23 24 29 30 35 40 45 50 55 60 65 70 75 80 85 90 95 100 105 110 115 120 125 130 0
d 136 45 125 0
d 137 135 45 125 0
d 138 135 45 125 0
d 139 1 2 6 7 12 13 18 23 24 29 30 35 40 45 50 55 60 65 70 75 80 85 90 95 100 105 110 115 120 125 130 135 0
d 141 55 125 0
d 142 140 55 125 0
d 143 140 55 125 0
d 144 1 2 6 7 12 13 18 23 24 29 30 35 40 45 50 55 60 65 70 75 80 85 90 95 100 105 110 115 120 125 130 135 140 0
d 146 65 125 0
d 147 145 65 125 0
d 148 145 65 125 0
d 149 1 2 6 7 12 13 18 23 24 29 30 35 40 45 50 55 60 65 70 75 80 85 90 95 100 105 110 115 120 125 130 135 140 145 0
d 151 150 2 0
d 152 150 2 0
d 153 1 2 6 7 12 13 18 23 24 29 30 35 40 45 50 55 60 65 70 75 80 85 90 95 100 105 110 115 120 125 130 135 140 145 150 0
d 155 154 7 0
d 156 154 7 0
d 157 1 2 6 7 12 13 18 23 24 29 30 35 40 45 50 55 60 65 70 75 80 85 90 95 100 105 110 115 120 125 130 135 140 145 150 154 0
d 159 158 13 0
d 160 158 13 0
d 161 1 2 6 7 12 13 18 23 24 29 30 35 40 45 50 55 60 65 70 75 80 85 90 95 100 105 110 115 120 125 130 135 140 145 150 154 158 0
d 163 154 158 0
d 164 162 154 158 0
d 165 162 154 158 0
d 166 1 2 6 7 12 13 18 23 24 29 30 35 40 45 50 55 60 65 70 75 80 85 90 95 100 105 110 115 120 125 130 135 140 145 150 154 158 162 0
d 168 167 24 0
d 169 167 24 0
d 170 1 2 6 7 12 13 18 23 24 29 30 35 40 45 50 55 60 65 70 75 80 85 90 95 100 105 110 115 120 125 130 135 140 145 150 154 158 162 167 0
d 172 171 30 0
d 173 171 30 0
d 174 1 2 6 7 12 13 18 23 24 29 30 35 40 45 50 55 60 65 70 75 80 85 90 95 100 105 110 115 120 125 130 135 140 145 150 154 158 162 167 171 0
d 176 167 171 0
d 177 175 167 171 0
d 178 175 167 171 0
d 179 1 2 6 7 12 13 18 23 24 29 30 35 40 45 50 55 60 65 70 75 80 85 90 95 100 105 110 115 120 125 130 135 140 145 150 154 158 162 167 171 175 0
d 181 162 175 0
d 182 180 162 175 0
d 183 180 162 175 0
d 184 1 2 6 7 12 13 18 23 24 29 30 35 40 45 50 55 60 65 70 75 80 85 90 95 100 105 110 115 120 125 130 135 140 145 150 154 158 162 167 171 175 180 0
d 186 7 158 0
d 187 185 7 158 0
d 188 185 7 158 0
d 189 1 2 6 7 12 13 18 23 24 29 30 35 40 45 50 55 60 65 70 75 80 85 90 95 100 105 110 115 120 125 130 135 140 145 150 154 158 162 167 171 175 180 185 0
d 191 185 175 0
d 192 190 185 175 0
d 193 190 185 175 0
d 194 1 2 6 7 12 13 18 23 24 29 30 35 40 45 50 55 60 65 70 75 80 85 90 95 100 105 110 115 120 125 130 135 140 145 150 154 158 162 167 171 175 180 185 190 0
d 196 154 13 0
d 197 195 154 13 0
d 198 195 154 13 0
d 199 1 2 6 7 12 13 18 23 24 29 30 35 40 45 50 55 60 65 70 75 80 85 90 95 100 105 110 115 120 125 130 135 140 145 150 154 158 162 167 171 175 180 185 190 195 0
d 201 195 175 0
d 202 200 195 175 0
d 203 200 195 175 0
d 204 1 2 6 7 12 13 18 23 24 29 30 35 40 45 50 55 60 65 70 75 80 85 90 95 100 105 110 115 120 125 130 135 140 145 150 154 158 162 167 171 175 180 185 190 195 200 0
d 206 205 7 13 0
d 207 205 7 13 0
d 208 1 2 6 7 12 13 18 23 24 29 30 35 40 45 50 55 60 65 70 75 80 85 90 95 100 105 110 115 120 125 130 135 140 145 150 154 158 162 167 171 175 180 185 190 195 200 205 0
d 210 205 175 0
d 211 209 205 175 0
d 212 209 205 175 0
d 213 1 2 6 7 12 13 18 23 24 29 30 35 40 45 50 55 60 65 70 75 80 85 90 95 100 105 110 115 120 125 130 135 140 145 150 154 158 162 167 171 175 180 185 190 195 200 205 209 0
d 215 24 171 0
d 216 214 24 171 0
d 217 214 24 171 0
d 218 1 2 6 7 12 13 18 23 24 29 30 35 40 45 50 55 60 65 70 75 80 85 90 95 100 105 110 115 120 125 130 135 140 145 150 154 158 162 167 171 175 180 185 190 195 200 205 209 214 0
d 220 162 214 0
d 221 219 162 214 0
d 222 219 162 214 0
d 223 1 2 6 7 12 13 18 23 24 29 30 35 40 45 50 55 60 65 70 75 80 85 90 95 100 105 110 115 120 125 130 135 140 145 150 154 158 162 167 171 175 180 185 190 195 200 205 209 214 219 0
d 225 224 185 0
d 226 224 185 0
d 227 1 2 6 7 12 13 18 23 24 29 30 35 40 45 50 55 60 65 70 75 80 85 90 95 100 105 110 115 120 125 130 135 140 145 150 154 158 162 167 171 175 180 185 190 195 200 205 209 214 219 224 0
d 229 228 214 0
d 230 228 214 0
d 231 1 2 6 7 12 13 18 23 24 29 30 35 40 45 50 55 60 65 70 75 80 85 90 95 100 105 110 115 120 125 130 135 140 145 150 154 158 162 167 171 175 180 185 190 195 200 205 209 214 219 224 228 0
d 233 195 214 0
d 234 232 195 214 0
d 235 232 195 214 0
d 236 1 2 6 7 12 13 18 23 24 29 30 35 40 45 50 55 60 65 70 75 80 85 90 95 100 105 110 115 120 125 130 135 140 145 150 154 158 162 167 171 175 180 185 190 195 200 205 209 214 219 224 228 232 0
d 238 205 214 0
d 239 237 205 214 0
d 240 237 205 214 0
d 241 1 2 6 7 12 13 18 23 24 29 30 35 40 45 50 55 60 65 70 75 80 85 90 95 100 105 110 115 120 125 130 135 140 145 150 154 158 162 167 171 175 180 185 190 195 200 205 209 214 219 224 228 232 237 0
d 243 167 30 0
d 244 242 167 30 0
d 245 242 167 30 0
d 246 1 2 6 7 12 13 18 23 24 29 30 35 40 45 50 55 60 65 70 75 80 85 90 95 100 105 110 115 120 125 130 135 140 145 150 154 158 162 167 171 175 180 185 190 195 200 205 209 214 219 224 228 232 237 242 0
d 248 162 242 0
d 249 247 162 242 0
d 250 247 162 242 0
d 251 1 2 6 7 12 13 18 23 24 29 30 35 40 45 50 55 60 65 70 75 80 85 90 95 100 105 110 115 120 125 130 135 140 145 150 154 158 162 167 171 175 180 185 190 195 200 205 209 214 219 224 228 232 237 242 247 0
d 253 185 242 0
d 254 252 185 242 0
d 255 252 185 242 0
d 256 1 2 6 7 12 13 18 23 24 29 30 35 40 45 50 55 60 65 70 75 80 85 90 95 100 105 110 115 120 125 130 135 140 145 150 154 158 162 167 171 175 180 185 190 195 200 205 209 214 219 224 228 232 237 242 247 252 0
d 258 195 242 0
d 259 257 195 242 0
d 260 257 195 242 0
d 261 1 2 6 7 12 13 18 23 24 29 30 35 40 45 50 55 60 65 70 75 80 85 90 95 100 105 110 115 120 125 130 135 140 145 150 154 158 162 167 171 175 180 185 190 195 200 205 209 214 219 224 228 232 237 242 247 252 257 0
d 264 262 7 13 30 24 0
d 265 262 7 13 30 24 0
d 266 1 2 6 7 12 13 18 23 24 29 30 35 40 45 50 55 60 65 70 75 80 85 90 95 100 105 110 115 120 125 130 135 140 145 150 154 158 162 167 171 175 180 185 190 195 200 205 209 214 219 224 228 232 237 242 247 252 257 262 0
d 268 267 24 30 0
d 269 267 24 30 0
d 270 1 2 6 7 12 13 18 23 24 29 30 35 40 45 50 55 60 65 70 75 80 85 90 95 100 105 110 115 120 125 130 135 140 145 150 154 158 162 167 171 175 180 185 190 195 200 205 209 214 219 224 228 232 237 242 247 252 257 262 267 0
d 272 162 267 0
d 273 271 162 267 0
d 274 271 162 267 0
d 275 1 2 6 7 12 13 18 23 24 29 30 35 40 45 50 55 60 65 70 75 80 85 90 95 100 105 110 115 120 125 130 135 140 145 150 154 158 162 167 171 175 180 185 190 195 200 205 209 214 219 224 228 232 237 242 247 252 257 262 267 271 0
d 277 185 267 0
d 278 276 185 267 0
d 279 276 185 267 0
d 280 1 2 6 7 12 13 18 23 24 29 30 35 40 45 50 55 60 65 70 75 80 85 90 95 100 105 110 115 120 125 130 135 140 145 150 154 158 162 167 171 175 180 185 190 195 200 205 209 214 219 224 228 232 237 242 247 252 257 262 267 271 276 0
d 282 195 267 0
d 283 281 195 267 0
d 284 281 195 267 0
d 285 1 2 6 7 12 13 18 23 24 29 30 35 40 45 50 55 60 65 70 75 80 85 90 95 100 105 110 115 120 125 130 135 140 145 150 154 158 162 167 171 175 180 185 190 195 200 205 209 214 219 224 228 232 237 242 247 252 257 262 267 271 276 281 0
d 287 205 267 0
d 288 286 205 267 0
d 289 286 205 267 0
d 290 1 2 6 7 12 13 18 23 24 29 30 35 40 45 50 55 60 65 70 75 80 85 90 95 100 105 110 115 120 125 130 135 140 145 150 154 158 162 167 171 175 180 185 190 195 200 205 209 214 219 224 228 232 237 242 247 252 257 262 267 271 276 281 286 0
d 292 291 180 0
d 293 291 180 0
d 294 1 2 6 7 12 13 18 23 24 29 30 35 40 45 50 55 60 65 70 75 80 85 90 95 100 105 110 115 120 125 130 135 140 145 150 154 158 162 167 171 175 180 185 190 195 200 205 209 214 219 224 228 232 237 242 247 252 257 262 267 271 276 281 286 291 0
d 297 2 296 0
d 298 295 2 296 0
d 299 295 2 296 0
d 300 1 2 6 7 12 13 18 23 24 29 30 35 40 45 50 55 60 65 70 75 80 85 90 95 100 105 110 115 120 125 130 135 140 145 150 154 158 162 167 171 175 180 185 190 195 200 205 209 214 219 224 228 232 237 242 247 252 257 262 267 271 276 281 286 291 295 296 0
d 302 301 190 0
d 303 301 190 0
d 304 1 2 6 7 12 13 18 23 24 29 30 35 40 45 50 55 60 65 70 75 80 85 90 95 100 105 110 115 120 125 130 135 140 145 150 154 158 162 167 171 175 180 185 190 195 200 205 209 214 219 224 228 232 237 242 247 252 257 262 267 271 276 281 286 291 295 296 301 0
d 306 185 214 0
d 307 305 185 214 0
d 308 305 185 214 0
d 309 1 2 6 7 12 13 18 23 24 29 30 35 40 45 50 55 60 65 70 75 80 85 90 95 100 105 110 115 120 125 130 135 140 145 150 154 158 162 167 171 175 180 185 190 195 200 205 209 214 219 224 228 232 237 242 247 252 257 262 267 271 276 281 286 291 295 296 301 305 0
d 311 310 232 0
d 312 310 232 0
d 313 1 2 6 7 12 13 18 23 24 29 30 35 40 45 50 55 60 65 70 75 80 85 90 95 100 105 110 115 120 125 130 135 140 145 150 154 158 162 167 171 175 180 185 190 195 200 205 209 214 219 224 228 232 237 242 247 252 257 262 267 271 276 281 286 291 295 296 301 305 310 0
d 316 2 315 0
d 317 314 2 315 0
d 318 314 2 315 0
d 319 1 2 6 7 12 13 18 23 24 29 30 35 40 45 50 55 60 65 70 75 80 85 90 95 100 105 110 115 120 125 130 135 140 145 150 154 158 162 167 171 175 180 185 190 195 200 205 209 214 219 224 228 232 237 242 247 252 257 262 267 271 276 281 286 291 295 296 301 305 310 314 315 0
d 321 320 237 0
d 322 320 237 0
d 323 1 2 6 7 12 13 18 23 24 29 30 35 40 45 50 55 60 65 70 75 80 85 90 95 100 105 110 115 120 125 130 135 140 145 150 154 158 162 167 171 175 180 185 190 195 200 205 209 214 219 224 228 232 237 242 247 252 257 262 267 271 276 281 286 291 295 296 301 305 310 314 315 320 0
d 325 150 324 0
d 326 150 324 180 0
d 328 150 327 0
d 329 150 327 190 0
d 330 150 324 180 327 190 0
d 332 437 2 200 0
d 334 150 333 0
d 335 150 333 209 0
d 336 437 2 200 150 333 209 0
d 337 150 324 180 327 190 437 2 200 333 209 0
d 339 150 338 0
d 340 150 338 219 0
d 342 150 338 219 446 224 228 2 0
d 344 150 343 0
d 345 150 343 232 0
d 347 150 346 0
d 348 150 346 237 0
d 349 150 343 232 346 237 0
d 350 150 338 219 446 224 228 2 343 232 346 237 0
d 351 150 324 180 327 190 437 2 200 333 209 338 219 446 224 228 343 232 346 237 0
d 353 150 352 0
d 354 150 352 247 0
d 356 459 2 252 0
d 357 150 352 247 459 2 252 0
d 359 463 2 257 0
d 361 463 2 257 262 466 0
d 362 150 352 247 459 2 252 463 257 262 466 0
d 364 150 363 0
d 365 150 363 271 0
d 367 150 366 0
d 368 150 366 276 0
d 369 150 363 271 366 276 0
d 370 150 363 271 366 276 0
d 372 150 371 0
d 373 150 371 281 0
d 375 150 374 0
d 376 150 374 286 0
d 377 150 371 281 374 286 0
d 378 150 363 271 366 276 371 281 374 286 0
d 379 150 352 247 459 2 252 463 257 262 466 363 271 366 276 371 281 374 286 0
d 380 150 324 180 327 190 437 2 200 333 209 338 219 446 224 228 343 232 346 237 352 247 459 252 463 257 262 466 363 271 366 276 371 281 374 286 0
d 383 2 382 0
d 384 2 382 200 0
d 386 2 385 0
d 387 2 385 209 0
d 388 2 382 200 385 209 0
d 389 291 295 301 2 484 382 200 385 209 0
d 391 2 390 0
d 392 2 390 219 0
d 394 2 393 0
d 395 2 393 305 0
d 396 2 390 219 393 305 0
d 398 2 390 219 393 305 310 314 320 496 0
d 399 291 295 301 2 484 382 200 385 209 390 219 393 305 310 314 320 496 0
d 401 2 400 0
d 402 2 400 247 0
d 404 2 403 0
d 405 2 403 252 0
d 406 2 400 247 403 252 0
d 408 2 407 0
d 409 2 407 257 0
d 411 2 410 0
d 412 2 410 7 13 30 24 0
d 413 2 407 257 410 7 13 30 24 0
d 414 2 400 247 403 252 407 257 410 7 13 30 24 0
d 416 2 510 271 0
d 418 2 417 0
d 419 2 417 276 0
d 420 2 510 271 417 276 0
d 422 2 421 0
d 423 2 421 281 0
d 425 2 424 0
d 426 2 424 286 0
d 427 2 421 281 424 286 0
d 428 2 510 271 417 276 421 281 424 286 0
d 429 2 400 247 403 252 407 257 410 7 13 30 24 510 271 417 276 421 281 424 286 0
d 430 291 295 301 2 484 382 200 385 209 390 219 393 305 310 314 320 496 400 247 403 252 407 257 410 7 13 30 24 510 271 417 276 421 281 424 286 0
d 431 150 324 180 327 190 437 2 200 333 209 338 219 446 224 228 343 232 346 237 352 247 459 252 463 257 262 466 363 271 366 276 371 281 374 286 291 295 301 484 382 385 390 393 305 310 314 320 496 400 403 407 410 7 13 30 24 510 417 421 424 0
d 432 1 324 0
d 433 1 324 40 0
d 434 1 327 0
d 435 1 327 50 0
d 436 1 324 40 327 50 0
d 438 1 437 0
d 439 1 437 60 0
d 440 1 333 0
d 441 1 333 70 0
d 442 1 437 60 333 70 0
d 443 1 324 40 327 50 437 60 333 70 0
d 444 1 338 0
d 445 1 338 80 0
d 447 1 446 0
d 448 1 446 85 0
d 449 1 338 80 446 85 0
d 450 1 343 0
d 451 1 343 90 0
d 452 1 346 0
d 453 1 346 95 0
d 454 1 343 90 346 95 0
d 455 1 338 80 446 85 343 90 346 95 0
d 456 1 324 40 327 50 437 60 333 70 338 80 446 85 343 90 346 95 0
d 457 1 352 0
d 458 1 352 105 0
d 460 1 459 0
d 461 1 459 110 0
d 462 1 352 105 459 110 0
d 464 1 463 0
d 465 1 463 115 0
d 467 1 466 0
d 468 1 466 120 0
d 469 1 463 115 466 120 0
d 470 1 352 105 459 110 463 115 466 120 0
d 471 1 363 0
d 472 1 363 130 0
d 473 1 366 0
d 474 1 366 135 0
d 475 1 363 130 366 135 0
d 476 1 371 0
d 477 1 371 140 0
d 478 1 374 0
d 479 1 374 145 0
d 480 1 371 140 374 145 0
d 481 1 363 130 366 135 371 140 374 145 0
d 482 1 352 105 459 110 463 115 466 120 363 130 366 135 371 140 374 145 0
d 483 1 324 40 327 50 437 60 333 70 338 80 446 85 343 90 346 95 352 105 459 110 463 115 466 120 363 130 366 135 371 140 374 145 0
d 485 2 484 0
d 486 2 484 40 0
d 487 2 296 50 0
d 488 2 484 40 296 50 0
d 489 2 382 60 0
d 490 2 385 70 0
d 491 2 382 60 385 70 0
d 492 2 484 40 296 50 382 60 385 70 0
d 493 2 390 80 0
d 494 2 393 85 0
d 495 2 390 80 393 85 0
d 497 2 496 0
d 498 2 496 90 0
d 499 2 315 95 0
d 500 2 496 90 315 95 0
d 501 2 390 80 393 85 496 90 315 95 0
d 502 2 484 40 296 50 382 60 385 70 390 80 393 85 496 90 315 95 0
d 503 2 400 105 0
d 504 2 403 110 0
d 505 2 400 105 403 110 0
d 506 2 407 115 0
d 507 2 410 120 0
d 508 2 407 115 410 120 0
d 509 2 400 105 403 110 407 115 410 120 0
d 511 2 510 0
d 512 2 510 130 0
d 513 2 417 135 0
d 514 2 510 130 417 135 0
d 515 2 421 140 0
d 516 2 424 145 0
d 517 2 421 140 424 145 0
d 518 2 510 130 417 135 421 140 424 145 0
d 519 2 400 105 403 110 407 115 410 120 510 130 417 135 421 140 424 145 0
d 520 2 484 40 296 50 382 60 385 70 390 80 393 85 496 90 315 95 400 105 403 110 407 115 410 120 510 130 417 135 421 140 424 145 0
d 521 1 324 40 327 50 437 60 333 70 338 80 446 85 343 90 346 95 352 105 459 110 463 115 466 120 363 130 366 135 371 140 374 145 2 484 296 382 385 390 393 496 315 400 403 407 410 510 417 421 424 0
d 522 150 324 180 327 190 437 2 200 333 209 338 219 446 224 228 343 232 346 237 352 247 459 252 463 257 262 466 363 271 366 276 371 281 374 286 291 295 301 484 382 385 390 393 305 310 314 320 496 400 403 407 410 7 13 30 24 510 417 421 424 1 40 50 60 70 80 85 90 95 105 110 115 120 130 135 140 145 296 315 0
d 523 1 2 6 7 12 13 18 23 24 29 30 35 40 45 50 55 60 65 70 75 80 85 90 95 100 105 110 115 120 125 130 135 140 145 150 154 158 162 167 171 175 180 185 190 195 200 205 209 214 219 224 228 232 237 242 247 252 257 262 267 271 276 281 286 291 295 296 301 305 310 314 315 320 324 327 437 333 338 446 343 346 352 459 463 466 363 366 371 374 484 382 385 390 393 496 400 403 407 410 510 417 421 424 0
3 2 0
-3 -2 0
4 -1 -3 0
4 1 3 0
-4 -1 3 0
-4 1 -3 0
5 4 0
-5 -4 0
8 7 0
-8 -7 0
9 -6 -8 0
9 6 8 0
-9 -6 8 0
-9 6 -8 0
10 9 0
-10 -9 0
11 -5 0
11 -10 0
-11 5 10 0
14 13 0
-14 -13 0
15 -12 -14 0
15 12 14 0
-15 -12 14 0
-15 12 -14 0
16 15 0
-16 -15 0
17 -11 0
17 -16 0
-17 11 16 0
-19 6 0
-19 12 0
19 -6 -12 0
20 -18 -19 0
20 18 19 0
-20 -18 19 0
-20 18 -19 0
21 20 0
-21 -20 0
22 -17 0
22 -21 0
-22 17 21 0
25 24 0
-25 -24 0
26 -23 -25 0
26 23 25 0
-26 -23 25 0
-26 23 -25 0
27 26 0
-27 -26 0
28 -22 0
28 -27 0
-28 22 27 0
31 30 0
-31 -30 0
32 -29 -31 0
32 29 31 0
-32 -29 31 0
-32 29 -31 0
33 32 0
-33 -32 0
34 -28 0
34 -33 0
-34 28 33 0
-36 23 0
-36 29 0
36 -23 -29 0
37 -35 -36 0
37 35 36 0
-37 -35 36 0
-37 35 -36 0
38 37 0
-38 -37 0
39 -34 0
39 -38 0
-39 34 38 0
-41 18 0
-41 35 0
41 -18 -35 0
42 -40 -41 0
42 40 41 0
-42 -40 41 0
-42 40 -41 0
43 42 0
-43 -42 0
44 -39 0
44 -43 0
-44 39 43 0
-46 7 0
-46 12 0
46 -7 -12 0
47 -45 -46 0
47 45 46 0
-47 -45 46 0
-47 45 -46 0
48 47 0
-48 -47 0
49 -44 0
49 -48 0
-49 44 48 0
-51 45 0
-51 35 0
51 -45 -35 0
52 -50 -51 0
52 50 51 0
-52 -50 51 0
-52 50 -51 0
53 52 0
-53 -52 0
54 -49 0
54 -53 0
-54 49 53 0
-56 6 0
-56 13 0
56 -6 -13 0
57 -55 -56 0
57 55 56 0
-57 -55 56 0
-57 55 -56 0
58 57 0
-58 -57 0
59 -54 0
59 -58 0
-59 54 58 0
-61 55 0
-61 35 0
61 -55 -35 0
62 -60 -61 0
62 60 61 0
-62 -60 61 0
-62 60 -61 0
63 62 0
-63 -62 0
64 -59 0
64 -63 0
-64 59 63 0
-66 7 0
-66 13 0
66 -7 -13 0
67 -65 -66 0
67 65 66 0
-67 -65 66 0
-67 65 -66 0
68 67 0
-68 -67 0
69 -64 0
69 -68 0
-69 64 68 0
-71 65 0
-71 35 0
71 -65 -35 0
72 -70 -71 0
72 70 71 0
-72 -70 71 0
-72 70 -71 0
73 72 0
-73 -72 0
74 -69 0
74 -73 0
-74 69 73 0
-76 24 0
-76 29 0
76 -24 -29 0
77 -75 -76 0
77 75 76 0
-77 -75 76 0
-77 75 -76 0
78 77 0
-78 -77 0
79 -74 0
79 -78 0
-79 74 78 0
-81 18 0
-81 75 0
81 -18 -75 0
82 -80 -81 0
82 80 81 0
-82 -80 81 0
-82 80 -81 0
83 82 0
-83 -82 0
84 -79 0
84 -83 0
-84 79 83 0
-86 45 0
-86 75 0
86 -45 -75 0
87 -85 -86 0
87 85 86 0
-87 -85 86 0
-87 85 -86 0
88 87 0
-88 -87 0
89 -84 0
89 -88 0
-89 84 88 0
-91 55 0
-91 75 0
91 -55 -75 0
92 -90 -91 0
92 90 91 0
-92 -90 91 0
-92 90 -91 0
93 92 0
-93 -92 0
94 -89 0
94 -93 0
-94 89 93 0
-96 65 0
-96 75 0
96 -65 -75 0
97 -95 -96 0
97 95 96 0
-97 -95 96 0
-97 95 -96 0
98 97 0
-98 -97 0
99 -94 0
99 -98 0
-99 94 98 0
-101 23 0
-101 30 0
101 -23 -30 0
102 -100 -101 0
102 100 101 0
-102 -100 101 0
-102 100 -101 0
103 102 0
-103 -102 0
104 -99 0
104 -103 0
-104 99 103 0
-106 18 0
-106 100 0
106 -18 -100 0
107 -105 -106 0
107 105 106 0
-107 -105 106 0
-107 105 -106 0
108 107 0
-108 -107 0
109 -104 0
109 -108 0
-109 104 108 0
-111 45 0
-111 100 0
111 -45 -100 0
112 -110 -111 0
112 110 111 0
-112 -110 111 0
-112 110 -111 0
113 112 0
-113 -112 0
114 -109 0
114 -113 0
-114 109 113 0
-116 55 0
-116 100 0
116 -55 -100 0
117 -115 -116 0
117 115 116 0
-117 -115 116 0
-117 115 -116 0
118 117 0
-118 -117 0
119 -114 0
119 -118 0
-119 114 118 0
-121 65 0
-121 100 0
121 -65 -100 0
122 -120 -121 0
122 120 121 0
-122 -120 121 0
-122 120 -121 0
123 122 0
-123 -122 0
124 -119 0
124 -123 0
-124 119 123 0
-126 24 0
-126 30 0
126 -24 -30 0
127 -125 -126 0
127 125 126 0
-127 -125 126 0
-127 125 -126 0
128 127 0
-128 -127 0
129 -124 0
129 -128 0
-129 124 128 0
-131 18 0
-131 125 0
131 -18 -125 0
132 -130 -131 0
132 130 131 0
-132 -130 131 0
-132 130 -131 0
133 132 0
-133 -132 0
134 -129 0
134 -133 0
-134 129 133 0
-136 45 0
-136 125 0
136 -45 -125 0
137 -135 -136 0
137 135 136 0
-137 -135 136 0
-137 135 -136 0
138 137 0
-138 -137 0
139 -134 0
139 -138 0
-139 134 138 0
-141 55 0
-141 125 0
141 -55 -125 0
142 -140 -141 0
142 140 141 0
-142 -140 141 0
-142 140 -141 0
143 142 0
-143 -142 0
144 -139 0
144 -143 0
-144 139 143 0
-146 65 0
-146 125 0
146 -65 -125 0
147 -145 -146 0
147 145 146 0
-147 -145 146 0
-147 145 -146 0
148 147 0
-148 -147 0
149 -144 0
149 -148 0
-149 144 148 0
151 -150 -3 0
151 150 3 0
-151 -150 3 0
-151 150 -3 0
152 151 0
-152 -151 0
153 -149 0
153 -152 0
-153 149 152 0
155 -154 -8 0
155 154 8 0
-155 -154 8 0
-155 154 -8 0
156 155 0
-156 -155 0
157 -153 0
157 -156 0
-157 153 156 0
159 -158 -14 0
159 158 14 0
-159 -158 14 0
-159 158 -14 0
160 159 0
-160 -159 0
161 -157 0
161 -160 0
-161 157 160 0
-163 154 0
-163 158 0
163 -154 -158 0
164 -162 -163 0
164 162 163 0
-164 -162 163 0
-164 162 -163 0
165 164 0
-165 -164 0
166 -161 0
166 -165 0
-166 161 165 0
168 -167 -25 0
168 167 25 0
-168 -167 25 0
-168 167 -25 0
169 168 0
-169 -168 0
170 -166 0
170 -169 0
-170 166 169 0
172 -171 -31 0
172 171 31 0
-172 -171 31 0
-172 171 -31 0
173 172 0
-173 -172 0
174 -170 0
174 -173 0
-174 170 173 0
-176 167 0
-176 171 0
176 -167 -171 0
177 -175 -176 0
177 175 176 0
-177 -175 176 0
-177 175 -176 0
178 177 0
-178 -177 0
179 -174 0
179 -178 0
-179 174 178 0
-181 162 0
-181 175 0
181 -162 -175 0
182 -180 -181 0
182 180 181 0
-182 -180 181 0
-182 180 -181 0
183 182 0
-183 -182 0
184 -179 0
184 -183 0
-184 179 183 0
-186 7 0
-186 158 0
186 -7 -158 0
187 -185 -186 0
187 185 186 0
-187 -185 186 0
-187 185 -186 0
188 187 0
-188 -187 0
189 -184 0
189 -188 0
-189 184 188 0
-191 185 0
-191 175 0
191 -185 -175 0
192 -190 -191 0
192 190 191 0
-192 -190 191 0
-192 190 -191 0
193 192 0
-193 -192 0
194 -189 0
194 -193 0
-194 189 193 0
-196 154 0
-196 13 0
196 -154 -13 0
197 -195 -196 0
197 195 196 0
-197 -195 196 0
-197 195 -196 0
198 197 0
-198 -197 0
199 -194 0
199 -198 0
-199 194 198 0
-201 195 0
-201 175 0
201 -195 -175 0
202 -200 -201 0
202 200 201 0
-202 -200 201 0
-202 200 -201 0
203 202 0
-203 -202 0
204 -199 0
204 -203 0
-204 199 203 0
206 -205 -66 0
206 205 66 0
-206 -205 66 0
-206 205 -66 0
207 206 0
-207 -206 0
208 -204 0
208 -207 0
-208 204 207 0
-210 205 0
-210 175 0
210 -205 -175 0
211 -209 -210 0
211 209 210 0
-211 -209 210 0
-211 209 -210 0
212 211 0
-212 -211 0
213 -208 0
213 -212 0
-213 208 212 0
-215 24 0
-215 171 0
215 -24 -171 0
216 -214 -215 0
216 214 215 0
-216 -214 215 0
-216 214 -215 0
217 216 0
-217 -216 0
218 -213 0
218 -217 0
-218 213 217 0
-220 162 0
-220 214 0
220 -162 -214 0
221 -219 -220 0
221 219 220 0
-221 -219 220 0
-221 219 -220 0
222 221 0
-222 -221 0
223 -218 0
223 -222 0
-223 218 222 0
225 -224 -185 0
225 224 185 0
-225 -224 185 0
-225 224 -185 0
226 225 0
-226 -225 0
227 -223 0
227 -226 0
-227 223 226 0
229 -228 -214 0
229 228 214 0
-229 -228 214 0
-229 228 -214 0
230 229 0
-230 -229 0
231 -227 0
231 -230 0
-231 227 230 0
-233 195 0
-233 214 0
233 -195 -214 0
234 -232 -233 0
234 232 233 0
-234 -232 233 0
-234 232 -233 0
235 234 0
-235 -234 0
236 -231 0
236 -235 0
-236 231 235 0
-238 205 0
-238 214 0
238 -205 -214 0
239 -237 -238 0
239 237 238 0
-239 -237 238 0
-239 237 -238 0
240 239 0
-240 -239 0
241 -236 0
241 -240 0
-241 236 240 0
-243 167 0
-243 30 0
243 -167 -30 0
244 -242 -243 0
244 242 243 0
-244 -242 243 0
-244 242 -243 0
245 244 0
-245 -244 0
246 -241 0
246 -245 0
-246 241 245 0
-248 162 0
-248 242 0
248 -162 -242 0
249 -247 -248 0
249 247 248 0
-249 -247 248 0
-249 247 -248 0
250 249 0
-250 -249 0
251 -246 0
251 -250 0
-251 246 250 0
-253 185 0
-253 242 0
253 -185 -242 0
254 -252 -253 0
254 252 253 0
-254 -252 253 0
-254 252 -253 0
255 254 0
-255 -254 0
256 -251 0
256 -255 0
-256 251 255 0
-258 195 0
-258 242 0
258 -195 -242 0
259 -257 -258 0
259 257 258 0
-259 -257 258 0
-259 257 -258 0
260 259 0
-260 -259 0
261 -256 0
261 -260 0
-261 256 260 0
264 -262 -263 0
264 262 263 0
-264 -262 263 0
-264 262 -263 0
265 264 0
-265 -264 0
266 -261 0
266 -265 0
-266 261 265 0
268 -267 -126 0
268 267 126 0
-268 -267 126 0
-268 267 -126 0
269 268 0
-269 -268 0
270 -266 0
270 -269 0
-270 266 269 0
-272 162 0
-272 267 0
272 -162 -267 0
273 -271 -272 0
273 271 272 0
-273 -271 272 0
-273 271 -272 0
274 273 0
-274 -273 0
275 -270 0
275 -274 0
-275 270 274 0
-277 185 0
-277 267 0
277 -185 -267 0
278 -276 -277 0
278 276 277 0
-278 -276 277 0
-278 276 -277 0
279 278 0
-279 -278 0
280 -275 0
280 -279 0
-280 275 279 0
-282 195 0
-282 267 0
282 -195 -267 0
283 -281 -282 0
283 281 282 0
-283 -281 282 0
-283 281 -282 0
284 283 0
-284 -283 0
285 -280 0
285 -284 0
-285 280 284 0
-287 205 0
-287 267 0
287 -205 -267 0
288 -286 -287 0
288 286 287 0
-288 -286 287 0
-288 286 -287 0
289 288 0
-289 -288 0
290 -285 0
290 -289 0
-290 285 289 0
292 -291 -180 0
292 291 180 0
-292 -291 180 0
-292 291 -180 0
293 292 0
-293 -292 0
294 -290 0
294 -293 0
-294 290 293 0
-297 2 0
-297 296 0
297 -2 -296 0
298 -295 -297 0
298 295 297 0
-298 -295 297 0
-298 295 -297 0
299 298 0
-299 -298 0
300 -294 0
300 -299 0
-300 294 299 0
302 -301 -190 0
302 301 190 0
-302 -301 190 0
-302 301 -190 0
303 302 0
-303 -302 0
304 -300 0
304 -303 0
-304 300 303 0
-306 185 0
-306 214 0
306 -185 -214 0
307 -305 -306 0
307 305 306 0
-307 -305 306 0
-307 305 -306 0
308 307 0
-308 -307 0
309 -304 0
309 -308 0
-309 304 308 0
311 -310 -232 0
311 310 232 0
-311 -310 232 0
-311 310 -232 0
312 311 0
-312 -311 0
313 -309 0
313 -312 0
-313 309 312 0
-316 2 0
-316 315 0
316 -2 -315 0
317 -314 -316 0
317 314 316 0
-317 -314 316 0
-317 314 -316 0
318 317 0
-318 -317 0
319 -313 0
319 -318 0
-319 313 318 0
321 -320 -237 0
321 320 237 0
-321 -320 237 0
-321 320 -237 0
322 321 0
-322 -321 0
323 -319 0
323 -322 0
-323 319 322 0
-325 150 0
-325 324 0
325 -150 -324 0
-326 325 0
-326 180 0
326 -325 -180 0
-328 150 0
-328 327 0
328 -150 -327 0
-329 328 0
-329 190 0
329 -328 -190 0
330 -326 0
330 -329 0
-330 326 329 0
-332 331 0
-332 200 0
332 -331 -200 0
-334 150 0
-334 333 0
334 -150 -333 0
-335 334 0
-335 209 0
335 -334 -209 0
336 -332 0
336 -335 0
-336 332 335 0
337 -330 0
337 -336 0
-337 330 336 0
-339 150 0
-339 338 0
339 -150 -338 0
-340 339 0
-340 219 0
340 -339 -219 0
342 -340 0
342 -341 0
-342 340 341 0
-344 150 0
-344 343 0
344 -150 -343 0
-345 344 0
-345 232 0
345 -344 -232 0
-347 150 0
-347 346 0
347 -150 -346 0
-348 347 0
-348 237 0
348 -347 -237 0
349 -345 0
349 -348 0
-349 345 348 0
350 -342 0
350 -349 0
-350 342 349 0
351 -337 0
351 -350 0
-351 337 350 0
-353 150 0
-353 352 0
353 -150 -352 0
-354 353 0
-354 247 0
354 -353 -247 0
-356 355 0
-356 252 0
356 -355 -252 0
357 -354 0
357 -356 0
-357 354 356 0
-359 358 0
-359 257 0
359 -358 -257 0
361 -359 0
361 -360 0
-361 359 360 0
362 -357 0
362 -361 0
-362 357 361 0
-364 150 0
-364 363 0
364 -150 -363 0
-365 364 0
-365 271 0
365 -364 -271 0
-367 150 0
-367 366 0
367 -150 -366 0
-368 367 0
-368 276 0
368 -367 -276 0
-369 365 0
-369 368 0
369 -365 -368 0
370 369 0
-370 -369 0
-372 150 0
-372 371 0
372 -150 -371 0
-373 372 0
-373 281 0
373 -372 -281 0
-375 150 0
-375 374 0
375 -150 -374 0
-376 375 0
-376 286 0
376 -375 -286 0
377 -373 0
377 -376 0
-377 373 376 0
378 -370 0
378 -377 0
-378 370 377 0
379 -362 0
379 -378 0
-379 362 378 0
380 -351 0
380 -379 0
-380 351 379 0
-383 2 0
-383 382 0
383 -2 -382 0
-384 383 0
-384 200 0
384 -383 -200 0
-386 2 0
-386 385 0
386 -2 -385 0
-387 386 0
-387 209 0
387 -386 -209 0
388 -384 0
388 -387 0
-388 384 387 0
389 -381 0
389 -388 0
-389 381 388 0
-391 2 0
-391 390 0
391 -2 -390 0
-392 391 0
-392 219 0
392 -391 -219 0
-394 2 0
-394 393 0
394 -2 -393 0
-395 394 0
-395 305 0
395 -394 -305 0
396 -392 0
396 -395 0
-396 392 395 0
398 -396 0
398 -397 0
-398 396 397 0
399 -389 0
399 -398 0
-399 389 398 0
-401 2 0
-401 400 0
401 -2 -400 0
-402 401 0
-402 247 0
402 -401 -247 0
-404 2 0
-404 403 0
404 -2 -403 0
-405 404 0
-405 252 0
405 -404 -252 0
406 -402 0
406 -405 0
-406 402 405 0
-408 2 0
-408 407 0
408 -2 -407 0
-409 408 0
-409 257 0
409 -408 -257 0
-411 2 0
-411 410 0
411 -2 -410 0
-412 411 0
-412 263 0
412 -411 -263 0
413 -409 0
413 -412 0
-413 409 412 0
414 -406 0
414 -413 0
-414 406 413 0
-416 415 0
-416 271 0
416 -415 -271 0
-418 2 0
-418 417 0
418 -2 -417 0
-419 418 0
-419 276 0
419 -418 -276 0
420 -416 0
420 -419 0
-420 416 419 0
-422 2 0
-422 421 0
422 -2 -421 0
-423 422 0
-423 281 0
423 -422 -281 0
-425 2 0
-425 424 0
425 -2 -424 0
-426 425 0
-426 286 0
426 -425 -286 0
427 -423 0
427 -426 0
-427 423 426 0
428 -420 0
428 -427 0
-428 420 427 0
429 -414 0
429 -428 0
-429 414 428 0
430 -399 0
430 -429 0
-430 399 429 0
431 -380 0
431 -430 0
-431 380 430 0
-432 1 0
-432 324 0
432 -1 -324 0
-433 432 0
-433 40 0
433 -432 -40 0
-434 1 0
-434 327 0
434 -1 -327 0
-435 434 0
-435 50 0
435 -434 -50 0
436 -433 0
436 -435 0
-436 433 435 0
-438 1 0
-438 437 0
438 -1 -437 0
-439 438 0
-439 60 0
439 -438 -60 0
-440 1 0
-440 333 0
440 -1 -333 0
-441 440 0
-441 70 0
441 -440 -70 0
442 -439 0
442 -441 0
-442 439 441 0
443 -436 0
443 -442 0
-443 436 442 0
-444 1 0
-444 338 0
444 -1 -338 0
-445 444 0
-445 80 0
445 -444 -80 0
-447 1 0
-447 446 0
447 -1 -446 0
-448 447 0
-448 85 0
448 -447 -85 0
449 -445 0
449 -448 0
-449 445 448 0
-450 1 0
-450 343 0
450 -1 -343 0
-451 450 0
-451 90 0
451 -450 -90 0
-452 1 0
-452 346 0
452 -1 -346 0
-453 452 0
-453 95 0
453 -452 -95 0
454 -451 0
454 -453 0
-454 451 453 0
455 -449 0
455 -454 0
-455 449 454 0
456 -443 0
456 -455 0
-456 443 455 0
-457 1 0
-457 352 0
457 -1 -352 0
-458 457 0
-458 105 0
458 -457 -105 0
-460 1 0
-460 459 0
460 -1 -459 0
-461 460 0
-461 110 0
461 -460 -110 0
462 -458 0
462 -461 0
-462 458 461 0
-464 1 0
-464 463 0
464 -1 -463 0
-465 464 0
-465 115 0
465 -464 -115 0
-467 1 0
-467 466 0
467 -1 -466 0
-468 467 0
-468 120 0
468 -467 -120 0
469 -465 0
469 -468 0
-469 465 468 0
470 -462 0
470 -469 0
-470 462 469 0
-471 1 0
-471 363 0
471 -1 -363 0
-472 471 0
-472 130 0
472 -471 -130 0
-473 1 0
-473 366 0
473 -1 -366 0
-474 473 0
-474 135 0
474 -473 -135 0
475 -472 0
475 -474 0
-475 472 474 0
-476 1 0
-476 371 0
476 -1 -371 0
-477 476 0
-477 140 0
477 -476 -140 0
-478 1 0
-478 374 0
478 -1 -374 0
-479 478 0
-479 145 0
479 -478 -145 0
480 -477 0
480 -479 0
-480 477 479 0
481 -475 0
481 -480 0
-481 475 480 0
482 -470 0
482 -481 0
-482 470 481 0
483 -456 0
483 -482 0
-483 456 482 0
-485 2 0
-485 484 0
485 -2 -484 0
-486 485 0
-486 40 0
486 -485 -40 0
-487 297 0
-487 50 0
487 -297 -50 0
488 -486 0
488 -487 0
-488 486 487 0
-489 383 0
-489 60 0
489 -383 -60 0
-490 386 0
-490 70 0
490 -386 -70 0
491 -489 0
491 -490 0
-491 489 490 0
492 -488 0
492 -491 0
-492 488 491 0
-493 391 0
-493 80 0
493 -391 -80 0
-494 394 0
-494 85 0
494 -394 -85 0
495 -493 0
495 -494 0
-495 493 494 0
-497 2 0
-497 496 0
497 -2 -496 0
-498 497 0
-498 90 0
498 -497 -90 0
-499 316 0
-499 95 0
499 -316 -95 0
500 -498 0
500 -499 0
-500 498 499 0
501 -495 0
501 -500 0
-501 495 500 0
502 -492 0
502 -501 0
-502 492 501 0
-503 401 0
-503 105 0
503 -401 -105 0
-504 404 0
-504 110 0
504 -404 -110 0
505 -503 0
505 -504 0
-505 503 504 0
-506 408 0
-506 115 0
506 -408 -115 0
-507 411 0
-507 120 0
507 -411 -120 0
508 -506 0
508 -507 0
-508 506 507 0
509 -505 0
509 -508 0
-509 505 508 0
-511 2 0
-511 510 0
511 -2 -510 0
-512 511 0
-512 130 0
512 -511 -130 0
-513 418 0
-513 135 0
513 -418 -135 0
514 -512 0
514 -513 0
-514 512 513 0
-515 422 0
-515 140 0
515 -422 -140 0
-516 425 0
-516 145 0
516 -425 -145 0
517 -515 0
517 -516 0
-517 515 516 0
518 -514 0
518 -517 0
-518 514 517 0
519 -509 0
519 -518 0
-519 509 518 0
520 -502 0
520 -519 0
-520 502 519 0
521 -483 0
521 -520 0
-521 483 520 0
522 -431 -521 0
522 431 521 0
-522 -431 521 0
-522 431 -521 0
523 -323 0
523 -522 0
-523 323 522 0
523 0
